\ File written by Highs .lp filereader
minimize
 obj: +1 x1 +1 x2 +1 x3 +2 x4 +1 x5 +1 x6 +1 x7 +1 x8 +1 x9 +2 x10 +1 x11 +1 x12 +1 x13 +1 x14 +2 x15 +1 x16 +1 x17 +2 x18 +1 x19 +1 x20 +1 x21 +1 x22 +2 x23 +1 x24 +1 x25 +1 x26 +2 x27 +1 x28 +1 x29 +2 x30 +1 x31 +1 x32 +1 x33 +1 x34 +1 x35 +1 x36 +2 x37 +1 x38 +1 x39 +1 x40 +2 x41 +1 x42 +2 x43 +1 x44 +1 x45 +2 x46 +1 x47 +1 x48 +1 x49 +1 x50 +1 x51 +1 x52 +2 x53 +1 x54 +1 x55 +1 x56 +2 x57 +1 x58 +2 x59 +1 x60 +1 x61 +2 x62 +1 x63 +1 x64 +2 x65 +1 x66 +1 x67 +2 x68 +1 x69 +2 x70 +1 x71 +1 x72 +2 x73 +1 x74 +2 x75 +1 x76 +2 x77 +1 x78 +1 x79 +2 x80 
+2 x81 +1 x82 +1 x83 +2 x84 +1 x85 +2 x86 +1 x87 +1 x88 +2 x89 +1 x90 +2 x91 +1 x92 +1 x93 +2 x94 +2 x95 +1 x96 +1 x97 +2 x98 +1 x99 +2 x100 +1 x101 +2 x102 +1 x103 +1 x104 +2 x105 +1 x106 +2 x107 +1 x108 +1 x109 +2 x110 +1 x111 +1 x112 +2 x113 +2 x114 +2 x115 +1 x116 +2 x117 +2 x118 +2 x119 +1 x120 +2 x121 +2 x122 +1 x123 +2 x124 +1 x125 +2 x126 +1 x127 +2 x128 +2 x129 +1 x130 +2 x131 +2 x132 +1 x133 +2 x134 +1 x135 +2 x136 +1 x137 +2 x138 +1 x139 +2 x140 +1 x141 +2 x142 +1 x143 +1 x144 +2 x145 +1 x146 +1 x147 +2 x148 +2 x149 +1 x150 +2 x151 +2 x152 
+1 x153 +2 x154 +1 x155 +2 x156 +1 x157 +2 x158 +1 x159 +2 x160 +1 x161 +2 x162 +1 x163 +1 x164 +2 x165 +1 x166 +1 x167 +2 x168 +1 x169 +2 x170 +1 x171 +2 x172 +1 x173 +1 x174 +2 x175 +1 x176 +1 x177 +1 x178 +2 x179 +1 x180 +1 x181 +1 x182 +0 x183 +0 x184 +0 x185 +0 x186 +0 x187 +0 x188 +0 x189 +0 x190 +0 x191 +0 x192 +0 x193 +0 x194 +0 x195 +0 x196 +0 x197 +0 x198 +0 x199 +0 x200 +0 x201 +0 x202 +0 x203 +0 x204 +0 x205 +0 x206 +0 x207 
st
 con1: +1 x1 +1 x2 +1 x3 +2 x4 +1 x7 +1 x8 +1 x9 +1 x19 +1 x20 +1 x21 +1 x22 +1 x47 +1 x48 +1 x49 +1 x50 +1 x63 +1 x64 +2 x65 +1 x66 +1 x67 +2 x68 +1 x69 +2 x70 +1 x71 +1 x72 +2 x73 +2 x113 +2 x114 +2 x115 +1 x116 +2 x117 +2 x118 +2 x119 +1 x120 +2 x121 +2 x122 +1 x123 +2 x124 +1 x125 +2 x126 +1 x127 = +1
 con2: +1 x2 +1 x3 +2 x4 +1 x5 +1 x8 +1 x9 +2 x10 +1 x19 +1 x21 +1 x22 +2 x23 +1 x24 +1 x31 +1 x33 +1 x34 +1 x35 +1 x36 +2 x37 +1 x38 +1 x47 +1 x49 +1 x50 +1 x51 +1 x52 +2 x53 +1 x54 +2 x115 +2 x119 +2 x122 +1 x125 +2 x126 +2 x129 +2 x132 +1 x135 +2 x136 +2 x138 +1 x141 +2 x142 +1 x144 +2 x145 +1 x147 = +1
 con3: +1 x3 +2 x4 +1 x5 +1 x6 +1 x9 +2 x10 +1 x13 +2 x15 +1 x16 +1 x17 +2 x18 +1 x21 +2 x23 +1 x24 +1 x25 +2 x27 +1 x28 +1 x29 +2 x30 +1 x33 +1 x35 +2 x37 +1 x38 +1 x39 +2 x41 +1 x42 +2 x43 +1 x44 +1 x45 +2 x46 +1 x49 +1 x51 +2 x53 +1 x54 +1 x55 +2 x57 +1 x58 +2 x59 +1 x60 +1 x61 +2 x62 = +1
 con4: +1 x7 +1 x8 +1 x9 +2 x10 +1 x20 +1 x22 +1 x24 +1 x32 +1 x34 +1 x36 +1 x38 +1 x48 +1 x50 +1 x52 +1 x54 +1 x66 +1 x69 +1 x71 +2 x73 +1 x76 +1 x78 +2 x80 +1 x82 +2 x84 +2 x86 +1 x87 +2 x117 +2 x121 +2 x124 +2 x126 +1 x127 +2 x131 +2 x134 +2 x136 +1 x137 +2 x140 +2 x142 +1 x143 +2 x145 +1 x146 +1 x147 = +1
 con5: +1 x1 +1 x2 +1 x3 +1 x7 +1 x8 +1 x11 +1 x12 +1 x13 +1 x14 +2 x15 +1 x16 +1 x19 +1 x20 +1 x25 +1 x26 +1 x63 +1 x64 +2 x65 +1 x66 +1 x88 +2 x89 +1 x90 +2 x91 +1 x92 +1 x93 +2 x94 +2 x113 +2 x114 +2 x115 +1 x116 +2 x117 +2 x148 +2 x149 +1 x150 +2 x151 +2 x152 +1 x153 +2 x154 +1 x155 +2 x156 +1 x157 = +1
 con6: +1 x2 +1 x3 +2 x4 +1 x8 +1 x9 +1 x11 +1 x13 +1 x14 +2 x15 +1 x16 +1 x17 +2 x18 +1 x19 +1 x21 +1 x22 +1 x25 +1 x26 +2 x27 +1 x28 +1 x47 +1 x49 +1 x50 +1 x55 +1 x56 +2 x57 +1 x58 +2 x115 +2 x119 +2 x122 +1 x125 +2 x126 +2 x149 +2 x152 +1 x155 +2 x156 +2 x158 +1 x161 +2 x162 +1 x164 +2 x165 +1 x167 = +1
 con7: +1 x7 +1 x8 +1 x9 +1 x12 +1 x14 +1 x16 +2 x18 +1 x20 +1 x22 +1 x26 +1 x28 +1 x48 +1 x50 +1 x56 +1 x58 +1 x66 +1 x69 +1 x71 +2 x73 +1 x90 +1 x92 +2 x94 +1 x96 +2 x98 +2 x100 +1 x101 +2 x117 +2 x121 +2 x124 +2 x126 +1 x127 +2 x151 +2 x154 +2 x156 +1 x157 +2 x160 +2 x162 +1 x163 +2 x165 +1 x166 +1 x167 = +1
 con8: +1 x6 +1 x8 +1 x9 +2 x10 +1 x14 +1 x16 +2 x18 +1 x22 +1 x24 +1 x26 +1 x28 +2 x30 +1 x34 +1 x36 +1 x38 +1 x40 +1 x42 +1 x44 +2 x46 +1 x50 +1 x52 +1 x54 +1 x56 +1 x58 +1 x60 +2 x62 +2 x126 +2 x136 +2 x142 +2 x145 +1 x147 +2 x156 +2 x162 +2 x165 +1 x167 +2 x172 +2 x175 +1 x177 +2 x179 +1 x181 +1 x182 = +1
 con9: +1 x1 +1 x2 +1 x7 +1 x21 +1 x22 +2 x23 +1 x24 +1 x31 +1 x32 +1 x33 +1 x34 +1 x47 +1 x48 +1 x51 +1 x52 +1 x63 +1 x67 +2 x68 +1 x69 +1 x74 +2 x75 +1 x76 +2 x81 +1 x82 +1 x83 +2 x84 +2 x113 +2 x118 +2 x119 +1 x120 +2 x121 +2 x128 +2 x129 +1 x130 +2 x131 +2 x138 +1 x139 +2 x140 +1 x141 +2 x142 +1 x143 = +1
 con10: +1 x1 +1 x2 +1 x7 +1 x11 +1 x12 +1 x13 +1 x14 +1 x21 +1 x22 +2 x27 +1 x28 +1 x47 +1 x48 +1 x55 +1 x56 +1 x63 +1 x67 +2 x68 +1 x69 +1 x88 +2 x89 +1 x90 +2 x95 +1 x96 +1 x97 +2 x98 +2 x113 +2 x118 +2 x119 +1 x120 +2 x121 +2 x148 +2 x149 +1 x150 +2 x151 +2 x158 +1 x159 +2 x160 +1 x161 +2 x162 +1 x163 = +1
 con11: +1 x2 +1 x11 +1 x13 +1 x14 +1 x21 +1 x22 +2 x23 +1 x24 +2 x27 +1 x28 +1 x29 +2 x30 +1 x31 +1 x33 +1 x34 +1 x39 +1 x40 +2 x41 +1 x42 +1 x47 +1 x51 +1 x52 +1 x55 +1 x56 +2 x59 +1 x60 +2 x119 +2 x129 +2 x138 +1 x141 +2 x142 +2 x149 +2 x158 +1 x161 +2 x162 +2 x168 +1 x171 +2 x172 +1 x178 +2 x179 +1 x181 = +1
 con12: +1 x7 +1 x12 +1 x14 +1 x22 +1 x24 +1 x28 +2 x30 +1 x32 +1 x34 +1 x40 +1 x42 +1 x48 +1 x52 +1 x56 +1 x60 +1 x69 +1 x76 +1 x82 +2 x84 +1 x90 +1 x96 +2 x98 +1 x103 +2 x105 +2 x110 +1 x111 +2 x121 +2 x131 +2 x140 +2 x142 +1 x143 +2 x151 +2 x160 +2 x162 +1 x163 +2 x170 +2 x172 +1 x173 +2 x179 +1 x180 +1 x181 = +1
 con13: +1 x1 +1 x2 +1 x3 +1 x7 +1 x8 +1 x19 +1 x20 +1 x31 +1 x32 +1 x33 +1 x34 +1 x35 +1 x36 +2 x37 +1 x38 +1 x63 +1 x64 +2 x65 +1 x66 +1 x74 +2 x75 +1 x76 +2 x77 +1 x78 +1 x79 +2 x80 +2 x113 +2 x114 +2 x115 +1 x116 +2 x117 +2 x128 +2 x129 +1 x130 +2 x131 +2 x132 +1 x133 +2 x134 +1 x135 +2 x136 +1 x137 = +1
 con14: +1 x1 +1 x2 +1 x7 +1 x11 +1 x12 +1 x13 +1 x14 +1 x31 +1 x32 +1 x33 +1 x34 +1 x39 +1 x40 +2 x41 +1 x42 +1 x63 +1 x74 +2 x75 +1 x76 +1 x88 +2 x89 +1 x90 +2 x102 +1 x103 +1 x104 +2 x105 +2 x113 +2 x128 +2 x129 +1 x130 +2 x131 +2 x148 +2 x149 +1 x150 +2 x151 +2 x168 +1 x169 +2 x170 +1 x171 +2 x172 +1 x173 = +1
 con15: +1 x1 +1 x11 +1 x12 +1 x19 +1 x20 +1 x25 +1 x26 +1 x31 +1 x32 +1 x35 +1 x36 +1 x39 +1 x40 +2 x43 +1 x44 +1 x64 +1 x74 +2 x77 +1 x78 +1 x88 +2 x91 +1 x92 +2 x102 +1 x103 +1 x106 +2 x107 +2 x114 +2 x128 +2 x132 +1 x133 +2 x134 +2 x148 +2 x152 +1 x153 +2 x154 +2 x168 +1 x169 +2 x170 +1 x174 +2 x175 +1 x176 = +1
 con16: +1 x2 +1 x3 +1 x8 +1 x11 +1 x13 +1 x14 +2 x15 +1 x16 +1 x19 +1 x25 +1 x26 +1 x31 +1 x33 +1 x34 +1 x35 +1 x36 +2 x37 +1 x38 +1 x39 +1 x40 +2 x41 +1 x42 +2 x43 +1 x44 +1 x45 +2 x46 +2 x115 +2 x129 +2 x132 +1 x135 +2 x136 +2 x149 +2 x152 +1 x155 +2 x156 +2 x168 +1 x171 +2 x172 +1 x174 +2 x175 +1 x177 = +1
 con17: +1 x7 +1 x8 +1 x12 +1 x14 +1 x16 +1 x20 +1 x26 +1 x32 +1 x34 +1 x36 +1 x38 +1 x40 +1 x42 +1 x44 +2 x46 +1 x66 +1 x76 +1 x78 +2 x80 +1 x90 +1 x92 +2 x94 +1 x103 +2 x105 +2 x107 +1 x108 +2 x117 +2 x131 +2 x134 +2 x136 +1 x137 +2 x151 +2 x154 +2 x156 +1 x157 +2 x170 +2 x172 +1 x173 +2 x175 +1 x176 +1 x177 = +1
 con18: +1 x1 +1 x19 +1 x20 +1 x31 +1 x32 +1 x35 +1 x36 +1 x47 +1 x48 +1 x49 +1 x50 +1 x51 +1 x52 +2 x53 +1 x54 +1 x64 +1 x67 +2 x70 +1 x71 +1 x74 +2 x77 +1 x78 +2 x81 +1 x82 +1 x85 +2 x86 +2 x114 +2 x118 +2 x122 +1 x123 +2 x124 +2 x128 +2 x132 +1 x133 +2 x134 +2 x138 +1 x139 +2 x140 +1 x144 +2 x145 +1 x146 = +1
 con19: +1 x1 +1 x11 +1 x12 +1 x19 +1 x20 +1 x25 +1 x26 +1 x47 +1 x48 +1 x49 +1 x50 +1 x55 +1 x56 +2 x57 +1 x58 +1 x64 +1 x67 +2 x70 +1 x71 +1 x88 +2 x91 +1 x92 +2 x95 +1 x96 +1 x99 +2 x100 +2 x114 +2 x118 +2 x122 +1 x123 +2 x124 +2 x148 +2 x152 +1 x153 +2 x154 +2 x158 +1 x159 +2 x160 +1 x164 +2 x165 +1 x166 = +1
 con20: +1 x1 +1 x11 +1 x12 +1 x31 +1 x32 +1 x39 +1 x40 +1 x47 +1 x48 +1 x51 +1 x52 +1 x55 +1 x56 +2 x59 +1 x60 +1 x67 +1 x74 +2 x81 +1 x82 +1 x88 +2 x95 +1 x96 +2 x102 +1 x103 +1 x109 +2 x110 +2 x118 +2 x128 +2 x138 +1 x139 +2 x140 +2 x148 +2 x158 +1 x159 +2 x160 +2 x168 +1 x169 +2 x170 +1 x178 +2 x179 +1 x180 = +1
 con21: +1 x11 +1 x19 +1 x25 +1 x26 +1 x31 +1 x35 +1 x36 +1 x39 +1 x40 +2 x43 +1 x44 +1 x47 +1 x49 +1 x50 +1 x51 +1 x52 +2 x53 +1 x54 +1 x55 +1 x56 +2 x57 +1 x58 +2 x59 +1 x60 +1 x61 +2 x62 +2 x122 +2 x132 +2 x138 +1 x144 +2 x145 +2 x152 +2 x158 +1 x164 +2 x165 +2 x168 +1 x174 +2 x175 +1 x178 +2 x179 +1 x182 = +1
 con22: +1 x12 +1 x20 +1 x26 +1 x32 +1 x36 +1 x40 +1 x44 +1 x48 +1 x50 +1 x52 +1 x54 +1 x56 +1 x58 +1 x60 +2 x62 +1 x71 +1 x78 +1 x82 +2 x86 +1 x92 +1 x96 +2 x100 +1 x103 +2 x107 +2 x110 +1 x112 +2 x124 +2 x134 +2 x140 +2 x145 +1 x146 +2 x154 +2 x160 +2 x165 +1 x166 +2 x170 +2 x175 +1 x176 +2 x179 +1 x180 +1 x182 = +1
 con23: +1 x3 +2 x4 +1 x5 +1 x9 +2 x10 +1 x21 +2 x23 +1 x24 +1 x33 +1 x35 +2 x37 +1 x38 +1 x49 +1 x51 +2 x53 +1 x54 +1 x63 +1 x64 +2 x65 +1 x66 +1 x67 +2 x68 +1 x69 +2 x70 +1 x71 +1 x72 +2 x73 +1 x74 +2 x75 +1 x76 +2 x77 +1 x78 +1 x79 +2 x80 +2 x81 +1 x82 +1 x83 +2 x84 +1 x85 +2 x86 +1 x87 = +1
 con24: +1 x3 +2 x4 +1 x9 +1 x13 +2 x15 +1 x16 +1 x17 +2 x18 +1 x21 +1 x25 +2 x27 +1 x28 +1 x49 +1 x55 +2 x57 +1 x58 +1 x63 +1 x64 +2 x65 +1 x66 +1 x67 +2 x68 +1 x69 +2 x70 +1 x71 +1 x72 +2 x73 +1 x88 +2 x89 +1 x90 +2 x91 +1 x92 +1 x93 +2 x94 +2 x95 +1 x96 +1 x97 +2 x98 +1 x99 +2 x100 +1 x101 = +1
 con25: +1 x3 +1 x13 +2 x15 +1 x16 +1 x25 +1 x33 +1 x35 +2 x37 +1 x38 +1 x39 +2 x41 +1 x42 +2 x43 +1 x44 +1 x45 +2 x46 +1 x63 +1 x64 +2 x65 +1 x66 +1 x74 +2 x75 +1 x76 +2 x77 +1 x78 +1 x79 +2 x80 +1 x88 +2 x89 +1 x90 +2 x91 +1 x92 +1 x93 +2 x94 +2 x102 +1 x103 +1 x104 +2 x105 +1 x106 +2 x107 +1 x108 = +1
 con26: +1 x13 +1 x21 +2 x23 +1 x24 +2 x27 +1 x28 +1 x29 +2 x30 +1 x33 +1 x39 +2 x41 +1 x42 +1 x51 +1 x55 +2 x59 +1 x60 +1 x63 +1 x67 +2 x68 +1 x69 +1 x74 +2 x75 +1 x76 +2 x81 +1 x82 +1 x83 +2 x84 +1 x88 +2 x89 +1 x90 +2 x95 +1 x96 +1 x97 +2 x98 +2 x102 +1 x103 +1 x104 +2 x105 +1 x109 +2 x110 +1 x111 = +1
 con27: +1 x25 +1 x35 +1 x39 +2 x43 +1 x44 +1 x49 +1 x51 +2 x53 +1 x54 +1 x55 +2 x57 +1 x58 +2 x59 +1 x60 +1 x61 +2 x62 +1 x64 +1 x67 +2 x70 +1 x71 +1 x74 +2 x77 +1 x78 +2 x81 +1 x82 +1 x85 +2 x86 +1 x88 +2 x91 +1 x92 +2 x95 +1 x96 +1 x99 +2 x100 +2 x102 +1 x103 +1 x106 +2 x107 +1 x109 +2 x110 +1 x112 = +1
 con28: +2 x4 +2 x5 +2 x6 +2 x10 +2 x15 +2 x17 +2 x18 +2 x23 +2 x27 +2 x29 +2 x30 +2 x37 +2 x41 +2 x43 +2 x45 +2 x46 +2 x53 +2 x57 +2 x59 +2 x61 +2 x62 +2 x65 +2 x68 +2 x70 +2 x72 +2 x73 +2 x75 +2 x77 +2 x79 +2 x80 +2 x81 +2 x83 +2 x84 +2 x85 +2 x86 +2 x87 +2 x89 +2 x91 +2 x93 +2 x94 +2 x95 +2 x97 +2 x98 +2 x99 +2 x100 +2 x101 +2 x102 +2 x104 +2 x105 +2 x106 +2 x107 +2 x108 +2 x109 +2 x110 +2 x111 +2 x112 = +2
 con29: +1 x6 +1 x9 +2 x10 +1 x16 +2 x18 +1 x24 +1 x28 +2 x30 +1 x38 +1 x42 +1 x44 +2 x46 +1 x54 +1 x58 +1 x60 +2 x62 +1 x66 +1 x69 +1 x71 +2 x73 +1 x76 +1 x78 +2 x80 +1 x82 +2 x84 +2 x86 +1 x87 +1 x90 +1 x92 +2 x94 +1 x96 +2 x98 +2 x100 +1 x101 +1 x103 +2 x105 +2 x107 +1 x108 +2 x110 +1 x111 +1 x112 = +1
 con30: +2 x4 +2 x5 +2 x10 +2 x23 +2 x37 +2 x53 +2 x65 +2 x68 +2 x70 +2 x72 +2 x73 +2 x75 +2 x77 +2 x79 +2 x80 +2 x81 +2 x83 +2 x84 +2 x85 +2 x86 +2 x87 +2 x113 +2 x114 +2 x115 +2 x116 +2 x117 +2 x118 +2 x119 +2 x120 +2 x121 +2 x122 +2 x123 +2 x124 +2 x125 +2 x126 +2 x127 +2 x128 +2 x129 +2 x130 +2 x131 +2 x132 +2 x133 +2 x134 +2 x135 +2 x136 +2 x137 +2 x138 +2 x139 +2 x140 +2 x141 +2 x142 +2 x143 +2 x144 +2 x145 +2 x146 +2 x147 = +2
 con31: +2 x4 +2 x15 +2 x17 +2 x18 +2 x27 +2 x57 +2 x65 +2 x68 +2 x70 +2 x72 +2 x73 +2 x89 +2 x91 +2 x93 +2 x94 +2 x95 +2 x97 +2 x98 +2 x99 +2 x100 +2 x101 +2 x113 +2 x114 +2 x115 +2 x116 +2 x117 +2 x118 +2 x119 +2 x120 +2 x121 +2 x122 +2 x123 +2 x124 +2 x125 +2 x126 +2 x127 +2 x148 +2 x149 +2 x150 +2 x151 +2 x152 +2 x153 +2 x154 +2 x155 +2 x156 +2 x157 +2 x158 +2 x159 +2 x160 +2 x161 +2 x162 +2 x163 +2 x164 +2 x165 +2 x166 +2 x167 = +2
 con32: +2 x15 +2 x37 +2 x41 +2 x43 +2 x45 +2 x46 +2 x65 +2 x75 +2 x77 +2 x79 +2 x80 +2 x89 +2 x91 +2 x93 +2 x94 +2 x102 +2 x104 +2 x105 +2 x106 +2 x107 +2 x108 +2 x113 +2 x114 +2 x115 +2 x116 +2 x117 +2 x128 +2 x129 +2 x130 +2 x131 +2 x132 +2 x133 +2 x134 +2 x135 +2 x136 +2 x137 +2 x148 +2 x149 +2 x150 +2 x151 +2 x152 +2 x153 +2 x154 +2 x155 +2 x156 +2 x157 +2 x168 +2 x169 +2 x170 +2 x171 +2 x172 +2 x173 +2 x174 +2 x175 +2 x176 +2 x177 = +2
 con33: +2 x23 +2 x27 +2 x29 +2 x30 +2 x41 +2 x59 +2 x68 +2 x75 +2 x81 +2 x83 +2 x84 +2 x89 +2 x95 +2 x97 +2 x98 +2 x102 +2 x104 +2 x105 +2 x109 +2 x110 +2 x111 +2 x113 +2 x118 +2 x119 +2 x120 +2 x121 +2 x128 +2 x129 +2 x130 +2 x131 +2 x138 +2 x139 +2 x140 +2 x141 +2 x142 +2 x143 +2 x148 +2 x149 +2 x150 +2 x151 +2 x158 +2 x159 +2 x160 +2 x161 +2 x162 +2 x163 +2 x168 +2 x169 +2 x170 +2 x171 +2 x172 +2 x173 +2 x178 +2 x179 +2 x180 +2 x181 = +2
 con34: +2 x43 +2 x53 +2 x57 +2 x59 +2 x61 +2 x62 +2 x70 +2 x77 +2 x81 +2 x85 +2 x86 +2 x91 +2 x95 +2 x99 +2 x100 +2 x102 +2 x106 +2 x107 +2 x109 +2 x110 +2 x112 +2 x114 +2 x118 +2 x122 +2 x123 +2 x124 +2 x128 +2 x132 +2 x133 +2 x134 +2 x138 +2 x139 +2 x140 +2 x144 +2 x145 +2 x146 +2 x148 +2 x152 +2 x153 +2 x154 +2 x158 +2 x159 +2 x160 +2 x164 +2 x165 +2 x166 +2 x168 +2 x169 +2 x170 +2 x174 +2 x175 +2 x176 +2 x178 +2 x179 +2 x180 +2 x182 = +2
 con35: +2 x4 +2 x5 +2 x6 +2 x10 +2 x15 +2 x17 +2 x18 +2 x23 +2 x27 +2 x29 +2 x30 +2 x37 +2 x41 +2 x43 +2 x45 +2 x46 +2 x53 +2 x57 +2 x59 +2 x61 +2 x62 +2 x115 +2 x119 +2 x122 +2 x125 +2 x126 +2 x129 +2 x132 +2 x135 +2 x136 +2 x138 +2 x141 +2 x142 +2 x144 +2 x145 +2 x147 +2 x149 +2 x152 +2 x155 +2 x156 +2 x158 +2 x161 +2 x162 +2 x164 +2 x165 +2 x167 +2 x168 +2 x171 +2 x172 +2 x174 +2 x175 +2 x177 +2 x178 +2 x179 +2 x181 +2 x182 = +2
 con36: +1 x5 +1 x6 +1 x17 +1 x29 +1 x45 +1 x61 +1 x72 +1 x79 +1 x83 +1 x85 +1 x87 +1 x93 +1 x97 +1 x99 +1 x101 +1 x104 +1 x106 +1 x108 +1 x109 +1 x111 +1 x112 +1 x116 +1 x120 +1 x123 +1 x125 +1 x127 +1 x130 +1 x133 +1 x135 +1 x137 +1 x139 +1 x141 +1 x143 +1 x144 +1 x146 +1 x147 +1 x150 +1 x153 +1 x155 +1 x157 +1 x159 +1 x161 +1 x163 +1 x164 +1 x166 +1 x167 +1 x169 +1 x171 +1 x173 +1 x174 +1 x176 +1 x177 +1 x178 +1 x180 +1 x181 +1 x182 = +1
 con37: +2 x6 +2 x10 +2 x18 +2 x30 +2 x46 +2 x62 +2 x73 +2 x80 +2 x84 +2 x86 +2 x87 +2 x94 +2 x98 +2 x100 +2 x101 +2 x105 +2 x107 +2 x108 +2 x110 +2 x111 +2 x112 +2 x117 +2 x121 +2 x124 +2 x126 +2 x127 +2 x131 +2 x134 +2 x136 +2 x137 +2 x140 +2 x142 +2 x143 +2 x145 +2 x146 +2 x147 +2 x151 +2 x154 +2 x156 +2 x157 +2 x160 +2 x162 +2 x163 +2 x165 +2 x166 +2 x167 +2 x170 +2 x172 +2 x173 +2 x175 +2 x176 +2 x177 +2 x179 +2 x180 +2 x181 +2 x182 = +2
 con38: +1 x3 -1 x115 -1 x183 = +0
 con39: +1 x4 -1 x125 -1 x184 = +0
 con40: +1 x25 -1 x152 -1 x185 = +0
 con41: +1 x28 -1 x162 -1 x186 = +0
 con42: +1 x38 -1 x136 -1 x187 = +0
 con43: +1 x39 -1 x168 -1 x188 = +0
 con44: +1 x41 -1 x171 -1 x189 = +0
 con45: +1 x42 -1 x172 -1 x190 = +0
 con46: +1 x44 -1 x175 -1 x191 = +0
 con47: +1 x53 -1 x144 -1 x192 = +0
 con48: +1 x54 -1 x145 -1 x193 = +0
 con49: +1 x58 -1 x165 -1 x194 = +0
 con50: +1 x59 -1 x178 -1 x195 = +0
 con51: +1 x66 -1 x117 -1 x196 = +0
 con52: +1 x69 -1 x121 -1 x197 = +0
 con53: +1 x70 -1 x123 -1 x198 = +0
 con54: +1 x76 -1 x131 -1 x199 = +0
 con55: +1 x80 -1 x137 -1 x200 = +0
 con56: +1 x82 -1 x140 -1 x201 = +0
 con57: +1 x89 -1 x150 -1 x202 = +0
 con58: +1 x91 -1 x153 -1 x203 = +0
 con59: +1 x94 -1 x157 -1 x204 = +0
 con60: +1 x98 -1 x163 -1 x205 = +0
 con61: +1 x100 -1 x166 -1 x206 = +0
 con62: +1 x107 -1 x176 -1 x207 = +0
bounds
 +0 <= x1 <= +1
 +0 <= x2 <= +0
 +0 <= x3 <= +1
 +0 <= x4 <= +1
 +0 <= x5 <= +0
 +0 <= x6 <= +0
 +0 <= x7 <= +0
 +0 <= x8 <= +0
 +0 <= x9 <= +0
 +0 <= x10 <= +0
 +0 <= x11 <= +0
 +0 <= x12 <= +0
 +0 <= x13 <= +0
 +0 <= x14 <= +0
 +0 <= x15 <= +0
 +0 <= x16 <= +0
 +0 <= x17 <= +0
 +0 <= x18 <= +0
 +0 <= x19 <= +0
 +0 <= x20 <= +0
 +0 <= x21 <= +0
 +0 <= x22 <= +0
 +0 <= x23 <= +0
 +0 <= x24 <= +0
 +0 <= x25 <= +1
 +0 <= x26 <= +0
 +0 <= x27 <= +0
 +0 <= x28 <= +1
 +0 <= x29 <= +0
 +0 <= x30 <= +0
 +0 <= x31 <= +0
 +0 <= x32 <= +0
 +0 <= x33 <= +0
 +0 <= x34 <= +0
 +0 <= x35 <= +0
 +0 <= x36 <= +0
 +0 <= x37 <= +0
 +0 <= x38 <= +1
 +0 <= x39 <= +1
 +0 <= x40 <= +0
 +0 <= x41 <= +1
 +0 <= x42 <= +1
 +0 <= x43 <= +0
 +0 <= x44 <= +0
 +0 <= x45 <= +0
 +0 <= x46 <= +0
 +0 <= x47 <= +0
 +0 <= x48 <= +0
 +0 <= x49 <= +0
 +0 <= x50 <= +0
 +0 <= x51 <= +0
 +0 <= x52 <= +1
 +0 <= x53 <= +1
 +0 <= x54 <= +1
 +0 <= x55 <= +0
 +0 <= x56 <= +0
 +0 <= x57 <= +0
 +0 <= x58 <= +1
 +0 <= x59 <= +1
 +0 <= x60 <= +0
 +0 <= x61 <= +0
 +0 <= x62 <= +0
 +0 <= x63 <= +0
 +0 <= x64 <= +0
 +0 <= x65 <= +0
 +0 <= x66 <= +0
 +0 <= x67 <= +0
 +0 <= x68 <= +0
 +0 <= x69 <= +1
 +0 <= x70 <= +1
 +0 <= x71 <= +0
 +0 <= x72 <= +0
 +0 <= x73 <= +0
 +0 <= x74 <= +0
 +0 <= x75 <= +0
 +0 <= x76 <= +1
 +0 <= x77 <= +0
 +0 <= x78 <= +0
 +0 <= x79 <= +0
 +0 <= x80 <= +1
 +0 <= x81 <= +0
 +0 <= x82 <= +1
 +0 <= x83 <= +1
 +0 <= x84 <= +0
 +0 <= x85 <= +1
 +0 <= x86 <= +0
 +0 <= x87 <= +0
 +0 <= x88 <= +0
 +0 <= x89 <= +1
 +0 <= x90 <= +0
 +0 <= x91 <= +1
 +0 <= x92 <= +0
 +0 <= x93 <= +0
 +0 <= x94 <= +1
 +0 <= x95 <= +0
 +0 <= x96 <= +0
 +0 <= x97 <= +0
 +0 <= x98 <= +1
 +0 <= x99 <= +0
 +0 <= x100 <= +1
 +0 <= x101 <= +0
 +0 <= x102 <= +0
 +0 <= x103 <= +0
 +0 <= x104 <= +0
 +0 <= x105 <= +0
 +0 <= x106 <= +0
 +0 <= x107 <= +1
 +0 <= x108 <= +0
 +0 <= x109 <= +0
 +0 <= x110 <= +0
 +0 <= x111 <= +0
 +0 <= x112 <= +0
 +0 <= x113 <= +0
 +0 <= x114 <= +0
 +0 <= x115 <= +1
 +0 <= x116 <= +0
 +0 <= x117 <= +0
 +0 <= x118 <= +0
 +0 <= x119 <= +0
 +0 <= x120 <= +0
 +0 <= x121 <= +1
 +0 <= x122 <= +0
 +0 <= x123 <= +1
 +0 <= x124 <= +0
 +0 <= x125 <= +1
 +0 <= x126 <= +0
 +0 <= x127 <= +0
 +0 <= x128 <= +0
 +0 <= x129 <= +0
 +0 <= x130 <= +0
 +0 <= x131 <= +1
 +0 <= x132 <= +0
 +0 <= x133 <= +0
 +0 <= x134 <= +0
 +0 <= x135 <= +0
 +0 <= x136 <= +1
 +0 <= x137 <= +1
 +0 <= x138 <= +0
 +0 <= x139 <= +0
 +0 <= x140 <= +1
 +0 <= x141 <= +0
 +0 <= x142 <= +0
 +0 <= x143 <= +0
 +0 <= x144 <= +1
 +0 <= x145 <= +1
 +0 <= x146 <= +0
 +0 <= x147 <= +0
 +0 <= x148 <= +0
 +0 <= x149 <= +0
 +0 <= x150 <= +1
 +0 <= x151 <= +0
 +0 <= x152 <= +1
 +0 <= x153 <= +1
 +0 <= x154 <= +0
 +0 <= x155 <= +0
 +0 <= x156 <= +0
 +0 <= x157 <= +1
 +0 <= x158 <= +0
 +0 <= x159 <= +0
 +0 <= x160 <= +0
 +0 <= x161 <= +0
 +0 <= x162 <= +1
 +0 <= x163 <= +1
 +0 <= x164 <= +0
 +0 <= x165 <= +1
 +0 <= x166 <= +1
 +0 <= x167 <= +0
 +0 <= x168 <= +1
 +0 <= x169 <= +0
 +0 <= x170 <= +0
 +0 <= x171 <= +1
 +0 <= x172 <= +1
 +0 <= x173 <= +0
 +0 <= x174 <= +0
 +0 <= x175 <= +0
 +0 <= x176 <= +1
 +0 <= x177 <= +0
 +0 <= x178 <= +1
 +0 <= x179 <= +0
 +0 <= x180 <= +0
 +0 <= x181 <= +0
 +0 <= x182 <= +0
 +0 <= x183 <= +0
 +0 <= x184 <= +0
 +0 <= x185 <= +0
 +0 <= x186 <= +0
 +0 <= x187 <= +0
 +0 <= x188 <= +0
 +0 <= x189 <= +0
 +0 <= x190 <= +0
 +0 <= x191 <= +0
 +0 <= x192 <= +0
 +0 <= x193 <= +0
 +0 <= x194 <= +0
 +0 <= x195 <= +0
 +0 <= x196 <= +0
 +0 <= x197 <= +0
 +0 <= x198 <= +0
 +0 <= x199 <= +0
 +0 <= x200 <= +0
 +0 <= x201 <= +0
 +0 <= x202 <= +0
 +0 <= x203 <= +0
 +0 <= x204 <= +0
 +0 <= x205 <= +0
 +0 <= x206 <= +0
 +0 <= x207 <= +0
binary
general
semi
end
